\ Model firm
\ LP format - for model browsing. Use MPS format to capture full model detail.
Maximize
  24.5809752889655 output - 5 emission + [ - 0.9781567509498506 output ^2
   + 1.556313501899701 output * emission - 0.7781567509498505 emission ^2
   ] / 2 
Subject To
 R0: - output + emission <= 0
Bounds
End
